c 
c U(n,d) graph
c graph gen seed     : 40457
c number of vertices : 80
c max number of edges: 3160
c Euclidean distance : 0.200000
c data structure     : sparse
c
c           Graph Stats
c number of vertices  : 80
c nonisolated vertices: 80
c number of edges     : 304
c edge density        : 0.096203
c max degree          : 13
c avg degree          : 7.60
c min degree          : 2
p col 80 304
e 1 77
e 1 70
e 1 21
e 1 11
e 1 9
e 2 75
e 2 74
e 2 52
e 2 47
e 2 29
e 2 27
e 3 72
e 3 45
e 3 39
e 3 26
e 3 23
e 3 16
e 3 6
e 3 5
e 4 80
e 4 62
e 4 55
e 4 50
e 4 44
e 4 38
e 4 36
e 4 35
e 4 22
e 4 18
e 4 7
e 5 79
e 5 74
e 5 67
e 5 45
e 5 39
e 5 37
e 5 31
e 5 26
e 5 23
e 5 16
e 5 6
e 6 67
e 6 45
e 6 39
e 6 26
e 6 23
e 6 16
e 7 80
e 7 66
e 7 59
e 7 48
e 7 38
e 7 36
e 7 35
e 8 70
e 8 61
e 8 43
e 8 32
e 8 30
e 8 13
e 8 10
e 9 77
e 9 70
e 9 11
e 10 78
e 10 63
e 10 61
e 10 43
e 10 30
e 10 13
e 11 77
e 11 70
e 11 21
e 12 73
e 12 71
e 12 62
e 12 59
e 12 54
e 12 48
e 12 46
e 12 40
e 12 34
e 12 15
e 13 78
e 13 63
e 13 61
e 13 43
e 13 32
e 13 30
e 14 69
e 14 68
e 14 64
e 14 57
e 14 28
e 14 25
e 15 73
e 15 71
e 15 65
e 15 60
e 15 56
e 15 46
e 15 41
e 15 40
e 15 34
e 15 33
e 16 72
e 16 64
e 16 45
e 16 39
e 16 26
e 16 23
e 17 50
e 17 18
e 18 78
e 18 50
e 18 36
e 18 35
e 19 74
e 19 64
e 19 37
e 19 27
e 19 25
e 20 65
e 20 41
e 21 77
e 21 70
e 21 32
e 21 24
e 22 80
e 22 62
e 22 55
e 22 54
e 22 44
e 22 36
e 22 35
e 23 72
e 23 45
e 23 39
e 23 26
e 24 69
e 24 68
e 24 57
e 24 53
e 24 51
e 24 32
e 25 69
e 25 68
e 25 64
e 25 57
e 25 37
e 25 28
e 26 39
e 27 52
e 27 47
e 27 29
e 28 69
e 28 68
e 28 64
e 28 57
e 29 75
e 29 71
e 29 66
e 29 59
e 29 56
e 29 52
e 29 48
e 29 47
e 29 34
e 30 61
e 30 43
e 30 32
e 31 79
e 31 76
e 31 67
e 31 49
e 31 45
e 31 42
e 32 70
e 32 51
e 32 43
e 33 75
e 33 73
e 33 60
e 33 56
e 33 46
e 33 34
e 34 75
e 34 73
e 34 71
e 34 66
e 34 59
e 34 56
e 34 48
e 34 47
e 34 46
e 35 80
e 35 66
e 35 59
e 35 55
e 35 50
e 35 38
e 35 36
e 36 80
e 36 66
e 36 62
e 36 55
e 36 50
e 36 44
e 36 38
e 37 79
e 37 74
e 37 45
e 37 39
e 38 78
e 38 66
e 38 63
e 38 53
e 38 50
e 39 72
e 39 64
e 39 45
e 40 73
e 40 71
e 40 62
e 40 54
e 40 48
e 41 65
e 41 60
e 42 79
e 42 76
e 42 67
e 42 58
e 42 49
e 43 63
e 43 61
e 43 53
e 43 51
e 44 80
e 44 62
e 44 55
e 45 79
e 45 74
e 45 67
e 46 75
e 46 73
e 46 60
e 46 56
e 47 75
e 47 66
e 47 59
e 47 56
e 47 52
e 47 48
e 48 71
e 48 66
e 48 62
e 48 59
e 49 79
e 49 76
e 49 75
e 49 58
e 49 56
e 49 52
e 50 78
e 50 55
e 51 69
e 51 57
e 51 53
e 52 79
e 52 75
e 52 56
e 53 63
e 54 80
e 54 71
e 54 62
e 55 80
e 55 62
e 56 75
e 56 73
e 56 60
e 57 69
e 57 68
e 57 64
e 58 76
e 59 71
e 59 66
e 59 62
e 60 73
e 60 65
e 61 78
e 62 80
e 62 71
e 63 78
e 64 72
e 64 69
e 64 68
e 65 73
e 66 71
e 67 79
e 68 69
e 70 77
e 71 73
e 74 79
e 76 79
